#--------------------------- Simulation variables -----------------------------#
  variable         n equal 8 # System size.
#------------------------------------------------------------------------------#


#---------------------------- Atomic setup ------------------------------------#
  units            metal

  # Create atoms.
  lattice          custom 1.0 &
                   a1 1.0 0.0 0.0 &
                   a2 0.0 1.0 0.0 &
                   a3 0.0 0.0 1.0 &
                   basis 0.0 0.0 0.0 &
                   basis 0.5 0.5 0.0 &
                   basis 0.5 0.0 0.5 &
                   basis 0.0 0.5 0.5
  region           sim_box block 0 ${n} 0 ${n} 0 ${n}
  create_box       2 sim_box
  create_atoms     1 box basis 2 2 basis 3 2 basis 4 2

  # Interatomic potential information.
  pair_style       none
#------------------------------------------------------------------------------#

#----------------------------- Run simulation ---------------------------------#
  write_dump       all custom data/dump_L1_2.gz id type x y z
#------------------------------------------------------------------------------#
