#--------------------------- Simulation variables -----------------------------#
  variable         nx equal 9 # System size.
  variable         ny equal 5 # System size.
  variable         nz equal 6 # System size.
#------------------------------------------------------------------------------#


#---------------------------- Atomic setup ------------------------------------#
  units            real 

  # Create atoms.
  lattice          custom 1.0                        &
                   a1    1.0 0.0        0.0          &
                   a2    0.0 $(sqrt(3)) 0.0          &
                   a3    0.0 0.0        $(5.28/3.28) &
                   basis 0.0 0.0    0.0 &
                   basis 0.5 0.5    0.0 &
                   basis 0.5 $(5/6) 0.5 &
                   basis 0.0 $(1/3) 0.5
  region           sim_box block 0 ${nx} 0 ${ny} 0 ${nz}
  create_box       2 sim_box
  create_atoms     1 box
  lattice          custom 1.0 origin 0 0 $(3/8)      &
                   a1    1.0 0.0        0.0          &
                   a2    0.0 $(sqrt(3)) 0.0          &
                   a3    0.0 0.0        $(5.28/3.28) &
                   basis 0.0 0.0    0.0 &
                   basis 0.5 0.5    0.0 &
                   basis 0.5 $(5/6) 0.5 &
                   basis 0.0 $(1/3) 0.5
  create_atoms     2 box

  # Interatomic potential information.
  pair_style       none
#------------------------------------------------------------------------------#


#----------------------------- Run simulation ---------------------------------#
  write_dump       all custom data/dump_wurtzite.gz id type x y z
#------------------------------------------------------------------------------#
