#--------------------------- Simulation variables -----------------------------#
  variable         nx equal 11 # System size.
  variable         ny equal 7  # System size.
  variable         nz equal 7  # System size.
#------------------------------------------------------------------------------#


#---------------------------- Atomic setup ------------------------------------#
  units            metal

  # Create atoms.
  lattice          hcp 1.00
  region           sim_box block 0 ${nx} 0 ${ny} 0 ${nz}
  create_box       1 sim_box
  create_atoms     1 box

  # Interatomic potential information.
  pair_style       none
#------------------------------------------------------------------------------#


#----------------------------- Run simulation ---------------------------------#
  write_dump       all custom data/dump_hcp.gz id type x y z
#------------------------------------------------------------------------------#
